(set-info :category "industrial")
(set-info :status sat)
(declare-fun x00 () (_ BitVec 8))
(declare-fun x02 () (_ BitVec 8))
(declare-fun x04 () (_ BitVec 8))
(declare-fun x05 () (_ BitVec 8))
(declare-fun x06 () (_ BitVec 8))
(declare-fun x08 () (_ BitVec 8))
(declare-fun x11 () (_ BitVec 8))
(declare-fun x12 () (_ BitVec 8))
(declare-fun x13 () (_ BitVec 8))
(declare-fun x15 () (_ BitVec 8))
(declare-fun x17 () (_ BitVec 8))
(declare-fun x20 () (_ BitVec 8))
(declare-fun x22 () (_ BitVec 8))
(declare-fun x23 () (_ BitVec 8))
(declare-fun x24 () (_ BitVec 8))
(declare-fun x26 () (_ BitVec 8))
(declare-fun x27 () (_ BitVec 8))
(declare-fun x28 () (_ BitVec 8))
(declare-fun x31 () (_ BitVec 8))
(declare-fun x32 () (_ BitVec 8))
(declare-fun x33 () (_ BitVec 8))
(declare-fun x34 () (_ BitVec 8))
(declare-fun x35 () (_ BitVec 8))
(declare-fun x37 () (_ BitVec 8))
(declare-fun x38 () (_ BitVec 8))
(declare-fun x41 () (_ BitVec 8))
(declare-fun x42 () (_ BitVec 8))
(declare-fun x43 () (_ BitVec 8))
(declare-fun x44 () (_ BitVec 8))
(declare-fun x45 () (_ BitVec 8))
(declare-fun x48 () (_ BitVec 8))
(declare-fun x50 () (_ BitVec 8))
(declare-fun x53 () (_ BitVec 8))
(declare-fun x54 () (_ BitVec 8))
(declare-fun x55 () (_ BitVec 8))
(declare-fun x56 () (_ BitVec 8))
(declare-fun x57 () (_ BitVec 8))
(declare-fun x58 () (_ BitVec 8))
(declare-fun x60 () (_ BitVec 8))
(declare-fun x62 () (_ BitVec 8))
(declare-fun x63 () (_ BitVec 8))
(declare-fun x65 () (_ BitVec 8))
(declare-fun x66 () (_ BitVec 8))
(declare-fun x67 () (_ BitVec 8))
(declare-fun x68 () (_ BitVec 8))
(declare-fun x70 () (_ BitVec 8))
(declare-fun x72 () (_ BitVec 8))
(declare-fun x75 () (_ BitVec 8))
(declare-fun x77 () (_ BitVec 8))
(declare-fun x80 () (_ BitVec 8))
(declare-fun x81 () (_ BitVec 8))
(declare-fun x82 () (_ BitVec 8))
(declare-fun x84 () (_ BitVec 8))
(declare-fun x85 () (_ BitVec 8))
(declare-fun x86 () (_ BitVec 8))
(declare-fun x87 () (_ BitVec 8))
(declare-fun x88 () (_ BitVec 8))
(assert (bvult x00 (_ bv9 8)))
(assert (bvult x02 (_ bv9 8)))
(assert (bvult x04 (_ bv9 8)))
(assert (bvult x05 (_ bv9 8)))
(assert (bvult x06 (_ bv9 8)))
(assert (bvult x08 (_ bv9 8)))
(assert (bvult x11 (_ bv9 8)))
(assert (bvult x12 (_ bv9 8)))
(assert (bvult x13 (_ bv9 8)))
(assert (bvult x15 (_ bv9 8)))
(assert (bvult x17 (_ bv9 8)))
(assert (bvult x20 (_ bv9 8)))
(assert (bvult x22 (_ bv9 8)))
(assert (bvult x23 (_ bv9 8)))
(assert (bvult x24 (_ bv9 8)))
(assert (bvult x26 (_ bv9 8)))
(assert (bvult x27 (_ bv9 8)))
(assert (bvult x28 (_ bv9 8)))
(assert (bvult x31 (_ bv9 8)))
(assert (bvult x32 (_ bv9 8)))
(assert (bvult x33 (_ bv9 8)))
(assert (bvult x34 (_ bv9 8)))
(assert (bvult x35 (_ bv9 8)))
(assert (bvult x37 (_ bv9 8)))
(assert (bvult x38 (_ bv9 8)))
(assert (bvult x41 (_ bv9 8)))
(assert (bvult x42 (_ bv9 8)))
(assert (bvult x43 (_ bv9 8)))
(assert (bvult x44 (_ bv9 8)))
(assert (bvult x45 (_ bv9 8)))
(assert (bvult x48 (_ bv9 8)))
(assert (bvult x50 (_ bv9 8)))
(assert (bvult x53 (_ bv9 8)))
(assert (bvult x54 (_ bv9 8)))
(assert (bvult x55 (_ bv9 8)))
(assert (bvult x56 (_ bv9 8)))
(assert (bvult x57 (_ bv9 8)))
(assert (bvult x58 (_ bv9 8)))
(assert (bvult x60 (_ bv9 8)))
(assert (bvult x62 (_ bv9 8)))
(assert (bvult x63 (_ bv9 8)))
(assert (bvult x65 (_ bv9 8)))
(assert (bvult x66 (_ bv9 8)))
(assert (bvult x67 (_ bv9 8)))
(assert (bvult x68 (_ bv9 8)))
(assert (bvult x70 (_ bv9 8)))
(assert (bvult x72 (_ bv9 8)))
(assert (bvult x75 (_ bv9 8)))
(assert (bvult x77 (_ bv9 8)))
(assert (bvult x80 (_ bv9 8)))
(assert (bvult x81 (_ bv9 8)))
(assert (bvult x82 (_ bv9 8)))
(assert (bvult x84 (_ bv9 8)))
(assert (bvult x85 (_ bv9 8)))
(assert (bvult x86 (_ bv9 8)))
(assert (bvult x87 (_ bv9 8)))
(assert (bvult x88 (_ bv9 8)))
(assert (not (= x00 (_ bv5 8))))
(assert (not (= x00 x02)))
(assert (not (= x00 (_ bv4 8))))
(assert (not (= x00 x04)))
(assert (not (= x00 x05)))
(assert (not (= x00 x06)))
(assert (not (= x00 (_ bv7 8))))
(assert (not (= x00 x08)))
(assert (not (= (_ bv5 8) x02)))
(assert (not (= (_ bv5 8) (_ bv4 8))))
(assert (not (= (_ bv5 8) x04)))
(assert (not (= (_ bv5 8) x05)))
(assert (not (= (_ bv5 8) x06)))
(assert (not (= (_ bv5 8) (_ bv7 8))))
(assert (not (= (_ bv5 8) x08)))
(assert (not (= x02 (_ bv4 8))))
(assert (not (= x02 x04)))
(assert (not (= x02 x05)))
(assert (not (= x02 x06)))
(assert (not (= x02 (_ bv7 8))))
(assert (not (= x02 x08)))
(assert (not (= (_ bv4 8) x04)))
(assert (not (= (_ bv4 8) x05)))
(assert (not (= (_ bv4 8) x06)))
(assert (not (= (_ bv4 8) (_ bv7 8))))
(assert (not (= (_ bv4 8) x08)))
(assert (not (= x04 x05)))
(assert (not (= x04 x06)))
(assert (not (= x04 (_ bv7 8))))
(assert (not (= x04 x08)))
(assert (not (= x05 x06)))
(assert (not (= x05 (_ bv7 8))))
(assert (not (= x05 x08)))
(assert (not (= x06 (_ bv7 8))))
(assert (not (= x06 x08)))
(assert (not (= (_ bv7 8) x08)))
(assert (not (= (_ bv8 8) x11)))
(assert (not (= (_ bv8 8) x12)))
(assert (not (= (_ bv8 8) x13)))
(assert (not (= (_ bv8 8) (_ bv5 8))))
(assert (not (= (_ bv8 8) x15)))
(assert (not (= (_ bv8 8) (_ bv3 8))))
(assert (not (= (_ bv8 8) x17)))
(assert (not (= (_ bv8 8) (_ bv1 8))))
(assert (not (= x11 x12)))
(assert (not (= x11 x13)))
(assert (not (= x11 (_ bv5 8))))
(assert (not (= x11 x15)))
(assert (not (= x11 (_ bv3 8))))
(assert (not (= x11 x17)))
(assert (not (= x11 (_ bv1 8))))
(assert (not (= x12 x13)))
(assert (not (= x12 (_ bv5 8))))
(assert (not (= x12 x15)))
(assert (not (= x12 (_ bv3 8))))
(assert (not (= x12 x17)))
(assert (not (= x12 (_ bv1 8))))
(assert (not (= x13 (_ bv5 8))))
(assert (not (= x13 x15)))
(assert (not (= x13 (_ bv3 8))))
(assert (not (= x13 x17)))
(assert (not (= x13 (_ bv1 8))))
(assert (not (= (_ bv5 8) x15)))
(assert (not (= (_ bv5 8) (_ bv3 8))))
(assert (not (= (_ bv5 8) x17)))
(assert (not (= (_ bv5 8) (_ bv1 8))))
(assert (not (= x15 (_ bv3 8))))
(assert (not (= x15 x17)))
(assert (not (= x15 (_ bv1 8))))
(assert (not (= (_ bv3 8) x17)))
(assert (not (= (_ bv3 8) (_ bv1 8))))
(assert (not (= x17 (_ bv1 8))))
(assert (not (= x20 (_ bv6 8))))
(assert (not (= x20 x22)))
(assert (not (= x20 x23)))
(assert (not (= x20 x24)))
(assert (not (= x20 (_ bv1 8))))
(assert (not (= x20 x26)))
(assert (not (= x20 x27)))
(assert (not (= x20 x28)))
(assert (not (= (_ bv6 8) x22)))
(assert (not (= (_ bv6 8) x23)))
(assert (not (= (_ bv6 8) x24)))
(assert (not (= (_ bv6 8) (_ bv1 8))))
(assert (not (= (_ bv6 8) x26)))
(assert (not (= (_ bv6 8) x27)))
(assert (not (= (_ bv6 8) x28)))
(assert (not (= x22 x23)))
(assert (not (= x22 x24)))
(assert (not (= x22 (_ bv1 8))))
(assert (not (= x22 x26)))
(assert (not (= x22 x27)))
(assert (not (= x22 x28)))
(assert (not (= x23 x24)))
(assert (not (= x23 (_ bv1 8))))
(assert (not (= x23 x26)))
(assert (not (= x23 x27)))
(assert (not (= x23 x28)))
(assert (not (= x24 (_ bv1 8))))
(assert (not (= x24 x26)))
(assert (not (= x24 x27)))
(assert (not (= x24 x28)))
(assert (not (= (_ bv1 8) x26)))
(assert (not (= (_ bv1 8) x27)))
(assert (not (= (_ bv1 8) x28)))
(assert (not (= x26 x27)))
(assert (not (= x26 x28)))
(assert (not (= x27 x28)))
(assert (not (= (_ bv2 8) x31)))
(assert (not (= (_ bv2 8) x32)))
(assert (not (= (_ bv2 8) x33)))
(assert (not (= (_ bv2 8) x34)))
(assert (not (= (_ bv2 8) x35)))
(assert (not (= (_ bv2 8) (_ bv7 8))))
(assert (not (= (_ bv2 8) x37)))
(assert (not (= (_ bv2 8) x38)))
(assert (not (= x31 x32)))
(assert (not (= x31 x33)))
(assert (not (= x31 x34)))
(assert (not (= x31 x35)))
(assert (not (= x31 (_ bv7 8))))
(assert (not (= x31 x37)))
(assert (not (= x31 x38)))
(assert (not (= x32 x33)))
(assert (not (= x32 x34)))
(assert (not (= x32 x35)))
(assert (not (= x32 (_ bv7 8))))
(assert (not (= x32 x37)))
(assert (not (= x32 x38)))
(assert (not (= x33 x34)))
(assert (not (= x33 x35)))
(assert (not (= x33 (_ bv7 8))))
(assert (not (= x33 x37)))
(assert (not (= x33 x38)))
(assert (not (= x34 x35)))
(assert (not (= x34 (_ bv7 8))))
(assert (not (= x34 x37)))
(assert (not (= x34 x38)))
(assert (not (= x35 (_ bv7 8))))
(assert (not (= x35 x37)))
(assert (not (= x35 x38)))
(assert (not (= (_ bv7 8) x37)))
(assert (not (= (_ bv7 8) x38)))
(assert (not (= x37 x38)))
(assert (not (= (_ bv3 8) x41)))
(assert (not (= (_ bv3 8) x42)))
(assert (not (= (_ bv3 8) x43)))
(assert (not (= (_ bv3 8) x44)))
(assert (not (= (_ bv3 8) x45)))
(assert (not (= (_ bv3 8) (_ bv2 8))))
(assert (not (= (_ bv3 8) (_ bv5 8))))
(assert (not (= (_ bv3 8) x48)))
(assert (not (= x41 x42)))
(assert (not (= x41 x43)))
(assert (not (= x41 x44)))
(assert (not (= x41 x45)))
(assert (not (= x41 (_ bv2 8))))
(assert (not (= x41 (_ bv5 8))))
(assert (not (= x41 x48)))
(assert (not (= x42 x43)))
(assert (not (= x42 x44)))
(assert (not (= x42 x45)))
(assert (not (= x42 (_ bv2 8))))
(assert (not (= x42 (_ bv5 8))))
(assert (not (= x42 x48)))
(assert (not (= x43 x44)))
(assert (not (= x43 x45)))
(assert (not (= x43 (_ bv2 8))))
(assert (not (= x43 (_ bv5 8))))
(assert (not (= x43 x48)))
(assert (not (= x44 x45)))
(assert (not (= x44 (_ bv2 8))))
(assert (not (= x44 (_ bv5 8))))
(assert (not (= x44 x48)))
(assert (not (= x45 (_ bv2 8))))
(assert (not (= x45 (_ bv5 8))))
(assert (not (= x45 x48)))
(assert (not (= (_ bv2 8) (_ bv5 8))))
(assert (not (= (_ bv2 8) x48)))
(assert (not (= (_ bv5 8) x48)))
(assert (not (= x50 (_ bv8 8))))
(assert (not (= x50 (_ bv6 8))))
(assert (not (= x50 x53)))
(assert (not (= x50 x54)))
(assert (not (= x50 x55)))
(assert (not (= x50 x56)))
(assert (not (= x50 x57)))
(assert (not (= x50 x58)))
(assert (not (= (_ bv8 8) (_ bv6 8))))
(assert (not (= (_ bv8 8) x53)))
(assert (not (= (_ bv8 8) x54)))
(assert (not (= (_ bv8 8) x55)))
(assert (not (= (_ bv8 8) x56)))
(assert (not (= (_ bv8 8) x57)))
(assert (not (= (_ bv8 8) x58)))
(assert (not (= (_ bv6 8) x53)))
(assert (not (= (_ bv6 8) x54)))
(assert (not (= (_ bv6 8) x55)))
(assert (not (= (_ bv6 8) x56)))
(assert (not (= (_ bv6 8) x57)))
(assert (not (= (_ bv6 8) x58)))
(assert (not (= x53 x54)))
(assert (not (= x53 x55)))
(assert (not (= x53 x56)))
(assert (not (= x53 x57)))
(assert (not (= x53 x58)))
(assert (not (= x54 x55)))
(assert (not (= x54 x56)))
(assert (not (= x54 x57)))
(assert (not (= x54 x58)))
(assert (not (= x55 x56)))
(assert (not (= x55 x57)))
(assert (not (= x55 x58)))
(assert (not (= x56 x57)))
(assert (not (= x56 x58)))
(assert (not (= x57 x58)))
(assert (not (= x60 (_ bv2 8))))
(assert (not (= x60 x62)))
(assert (not (= x60 x63)))
(assert (not (= x60 (_ bv7 8))))
(assert (not (= x60 x65)))
(assert (not (= x60 x66)))
(assert (not (= x60 x67)))
(assert (not (= x60 x68)))
(assert (not (= (_ bv2 8) x62)))
(assert (not (= (_ bv2 8) x63)))
(assert (not (= (_ bv2 8) (_ bv7 8))))
(assert (not (= (_ bv2 8) x65)))
(assert (not (= (_ bv2 8) x66)))
(assert (not (= (_ bv2 8) x67)))
(assert (not (= (_ bv2 8) x68)))
(assert (not (= x62 x63)))
(assert (not (= x62 (_ bv7 8))))
(assert (not (= x62 x65)))
(assert (not (= x62 x66)))
(assert (not (= x62 x67)))
(assert (not (= x62 x68)))
(assert (not (= x63 (_ bv7 8))))
(assert (not (= x63 x65)))
(assert (not (= x63 x66)))
(assert (not (= x63 x67)))
(assert (not (= x63 x68)))
(assert (not (= (_ bv7 8) x65)))
(assert (not (= (_ bv7 8) x66)))
(assert (not (= (_ bv7 8) x67)))
(assert (not (= (_ bv7 8) x68)))
(assert (not (= x65 x66)))
(assert (not (= x65 x67)))
(assert (not (= x65 x68)))
(assert (not (= x66 x67)))
(assert (not (= x66 x68)))
(assert (not (= x67 x68)))
(assert (not (= x70 (_ bv3 8))))
(assert (not (= x70 x72)))
(assert (not (= x70 (_ bv9 8))))
(assert (not (= x70 (_ bv2 8))))
(assert (not (= x70 x75)))
(assert (not (= x70 (_ bv6 8))))
(assert (not (= x70 x77)))
(assert (not (= x70 (_ bv4 8))))
(assert (not (= (_ bv3 8) x72)))
(assert (not (= (_ bv3 8) (_ bv9 8))))
(assert (not (= (_ bv3 8) (_ bv2 8))))
(assert (not (= (_ bv3 8) x75)))
(assert (not (= (_ bv3 8) (_ bv6 8))))
(assert (not (= (_ bv3 8) x77)))
(assert (not (= (_ bv3 8) (_ bv4 8))))
(assert (not (= x72 (_ bv9 8))))
(assert (not (= x72 (_ bv2 8))))
(assert (not (= x72 x75)))
(assert (not (= x72 (_ bv6 8))))
(assert (not (= x72 x77)))
(assert (not (= x72 (_ bv4 8))))
(assert (not (= (_ bv9 8) (_ bv2 8))))
(assert (not (= (_ bv9 8) x75)))
(assert (not (= (_ bv9 8) (_ bv6 8))))
(assert (not (= (_ bv9 8) x77)))
(assert (not (= (_ bv9 8) (_ bv4 8))))
(assert (not (= (_ bv2 8) x75)))
(assert (not (= (_ bv2 8) (_ bv6 8))))
(assert (not (= (_ bv2 8) x77)))
(assert (not (= (_ bv2 8) (_ bv4 8))))
(assert (not (= x75 (_ bv6 8))))
(assert (not (= x75 x77)))
(assert (not (= x75 (_ bv4 8))))
(assert (not (= (_ bv6 8) x77)))
(assert (not (= (_ bv6 8) (_ bv4 8))))
(assert (not (= x77 (_ bv4 8))))
(assert (not (= x80 x81)))
(assert (not (= x80 x82)))
(assert (not (= x80 (_ bv1 8))))
(assert (not (= x80 x84)))
(assert (not (= x80 x85)))
(assert (not (= x80 x86)))
(assert (not (= x80 x87)))
(assert (not (= x80 x88)))
(assert (not (= x81 x82)))
(assert (not (= x81 (_ bv1 8))))
(assert (not (= x81 x84)))
(assert (not (= x81 x85)))
(assert (not (= x81 x86)))
(assert (not (= x81 x87)))
(assert (not (= x81 x88)))
(assert (not (= x82 (_ bv1 8))))
(assert (not (= x82 x84)))
(assert (not (= x82 x85)))
(assert (not (= x82 x86)))
(assert (not (= x82 x87)))
(assert (not (= x82 x88)))
(assert (not (= (_ bv1 8) x84)))
(assert (not (= (_ bv1 8) x85)))
(assert (not (= (_ bv1 8) x86)))
(assert (not (= (_ bv1 8) x87)))
(assert (not (= (_ bv1 8) x88)))
(assert (not (= x84 x85)))
(assert (not (= x84 x86)))
(assert (not (= x84 x87)))
(assert (not (= x84 x88)))
(assert (not (= x85 x86)))
(assert (not (= x85 x87)))
(assert (not (= x85 x88)))
(assert (not (= x86 x87)))
(assert (not (= x86 x88)))
(assert (not (= x87 x88)))
(assert (not (= x00 (_ bv8 8))))
(assert (not (= x00 x20)))
(assert (not (= x00 (_ bv2 8))))
(assert (not (= x00 (_ bv3 8))))
(assert (not (= x00 x50)))
(assert (not (= x00 x60)))
(assert (not (= x00 x70)))
(assert (not (= x00 x80)))
(assert (not (= (_ bv8 8) x20)))
(assert (not (= (_ bv8 8) (_ bv2 8))))
(assert (not (= (_ bv8 8) (_ bv3 8))))
(assert (not (= (_ bv8 8) x50)))
(assert (not (= (_ bv8 8) x60)))
(assert (not (= (_ bv8 8) x70)))
(assert (not (= (_ bv8 8) x80)))
(assert (not (= x20 (_ bv2 8))))
(assert (not (= x20 (_ bv3 8))))
(assert (not (= x20 x50)))
(assert (not (= x20 x60)))
(assert (not (= x20 x70)))
(assert (not (= x20 x80)))
(assert (not (= (_ bv2 8) (_ bv3 8))))
(assert (not (= (_ bv2 8) x50)))
(assert (not (= (_ bv2 8) x60)))
(assert (not (= (_ bv2 8) x70)))
(assert (not (= (_ bv2 8) x80)))
(assert (not (= (_ bv3 8) x50)))
(assert (not (= (_ bv3 8) x60)))
(assert (not (= (_ bv3 8) x70)))
(assert (not (= (_ bv3 8) x80)))
(assert (not (= x50 x60)))
(assert (not (= x50 x70)))
(assert (not (= x50 x80)))
(assert (not (= x60 x70)))
(assert (not (= x60 x80)))
(assert (not (= x70 x80)))
(assert (not (= (_ bv5 8) x11)))
(assert (not (= (_ bv5 8) (_ bv6 8))))
(assert (not (= (_ bv5 8) x31)))
(assert (not (= (_ bv5 8) x41)))
(assert (not (= (_ bv5 8) (_ bv8 8))))
(assert (not (= (_ bv5 8) (_ bv2 8))))
(assert (not (= (_ bv5 8) (_ bv3 8))))
(assert (not (= (_ bv5 8) x81)))
(assert (not (= x11 (_ bv6 8))))
(assert (not (= x11 x31)))
(assert (not (= x11 x41)))
(assert (not (= x11 (_ bv8 8))))
(assert (not (= x11 (_ bv2 8))))
(assert (not (= x11 (_ bv3 8))))
(assert (not (= x11 x81)))
(assert (not (= (_ bv6 8) x31)))
(assert (not (= (_ bv6 8) x41)))
(assert (not (= (_ bv6 8) (_ bv8 8))))
(assert (not (= (_ bv6 8) (_ bv2 8))))
(assert (not (= (_ bv6 8) (_ bv3 8))))
(assert (not (= (_ bv6 8) x81)))
(assert (not (= x31 x41)))
(assert (not (= x31 (_ bv8 8))))
(assert (not (= x31 (_ bv2 8))))
(assert (not (= x31 (_ bv3 8))))
(assert (not (= x31 x81)))
(assert (not (= x41 (_ bv8 8))))
(assert (not (= x41 (_ bv2 8))))
(assert (not (= x41 (_ bv3 8))))
(assert (not (= x41 x81)))
(assert (not (= (_ bv8 8) (_ bv2 8))))
(assert (not (= (_ bv8 8) (_ bv3 8))))
(assert (not (= (_ bv8 8) x81)))
(assert (not (= (_ bv2 8) (_ bv3 8))))
(assert (not (= (_ bv2 8) x81)))
(assert (not (= (_ bv3 8) x81)))
(assert (not (= x02 x12)))
(assert (not (= x02 x22)))
(assert (not (= x02 x32)))
(assert (not (= x02 x42)))
(assert (not (= x02 (_ bv6 8))))
(assert (not (= x02 x62)))
(assert (not (= x02 x72)))
(assert (not (= x02 x82)))
(assert (not (= x12 x22)))
(assert (not (= x12 x32)))
(assert (not (= x12 x42)))
(assert (not (= x12 (_ bv6 8))))
(assert (not (= x12 x62)))
(assert (not (= x12 x72)))
(assert (not (= x12 x82)))
(assert (not (= x22 x32)))
(assert (not (= x22 x42)))
(assert (not (= x22 (_ bv6 8))))
(assert (not (= x22 x62)))
(assert (not (= x22 x72)))
(assert (not (= x22 x82)))
(assert (not (= x32 x42)))
(assert (not (= x32 (_ bv6 8))))
(assert (not (= x32 x62)))
(assert (not (= x32 x72)))
(assert (not (= x32 x82)))
(assert (not (= x42 (_ bv6 8))))
(assert (not (= x42 x62)))
(assert (not (= x42 x72)))
(assert (not (= x42 x82)))
(assert (not (= (_ bv6 8) x62)))
(assert (not (= (_ bv6 8) x72)))
(assert (not (= (_ bv6 8) x82)))
(assert (not (= x62 x72)))
(assert (not (= x62 x82)))
(assert (not (= x72 x82)))
(assert (not (= (_ bv4 8) x13)))
(assert (not (= (_ bv4 8) x23)))
(assert (not (= (_ bv4 8) x33)))
(assert (not (= (_ bv4 8) x43)))
(assert (not (= (_ bv4 8) x53)))
(assert (not (= (_ bv4 8) x63)))
(assert (not (= (_ bv4 8) (_ bv9 8))))
(assert (not (= (_ bv4 8) (_ bv1 8))))
(assert (not (= x13 x23)))
(assert (not (= x13 x33)))
(assert (not (= x13 x43)))
(assert (not (= x13 x53)))
(assert (not (= x13 x63)))
(assert (not (= x13 (_ bv9 8))))
(assert (not (= x13 (_ bv1 8))))
(assert (not (= x23 x33)))
(assert (not (= x23 x43)))
(assert (not (= x23 x53)))
(assert (not (= x23 x63)))
(assert (not (= x23 (_ bv9 8))))
(assert (not (= x23 (_ bv1 8))))
(assert (not (= x33 x43)))
(assert (not (= x33 x53)))
(assert (not (= x33 x63)))
(assert (not (= x33 (_ bv9 8))))
(assert (not (= x33 (_ bv1 8))))
(assert (not (= x43 x53)))
(assert (not (= x43 x63)))
(assert (not (= x43 (_ bv9 8))))
(assert (not (= x43 (_ bv1 8))))
(assert (not (= x53 x63)))
(assert (not (= x53 (_ bv9 8))))
(assert (not (= x53 (_ bv1 8))))
(assert (not (= x63 (_ bv9 8))))
(assert (not (= x63 (_ bv1 8))))
(assert (not (= (_ bv9 8) (_ bv1 8))))
(assert (not (= x04 (_ bv5 8))))
(assert (not (= x04 x24)))
(assert (not (= x04 x34)))
(assert (not (= x04 x44)))
(assert (not (= x04 x54)))
(assert (not (= x04 (_ bv7 8))))
(assert (not (= x04 (_ bv2 8))))
(assert (not (= x04 x84)))
(assert (not (= (_ bv5 8) x24)))
(assert (not (= (_ bv5 8) x34)))
(assert (not (= (_ bv5 8) x44)))
(assert (not (= (_ bv5 8) x54)))
(assert (not (= (_ bv5 8) (_ bv7 8))))
(assert (not (= (_ bv5 8) (_ bv2 8))))
(assert (not (= (_ bv5 8) x84)))
(assert (not (= x24 x34)))
(assert (not (= x24 x44)))
(assert (not (= x24 x54)))
(assert (not (= x24 (_ bv7 8))))
(assert (not (= x24 (_ bv2 8))))
(assert (not (= x24 x84)))
(assert (not (= x34 x44)))
(assert (not (= x34 x54)))
(assert (not (= x34 (_ bv7 8))))
(assert (not (= x34 (_ bv2 8))))
(assert (not (= x34 x84)))
(assert (not (= x44 x54)))
(assert (not (= x44 (_ bv7 8))))
(assert (not (= x44 (_ bv2 8))))
(assert (not (= x44 x84)))
(assert (not (= x54 (_ bv7 8))))
(assert (not (= x54 (_ bv2 8))))
(assert (not (= x54 x84)))
(assert (not (= (_ bv7 8) (_ bv2 8))))
(assert (not (= (_ bv7 8) x84)))
(assert (not (= (_ bv2 8) x84)))
(assert (not (= x05 x15)))
(assert (not (= x05 (_ bv1 8))))
(assert (not (= x05 x35)))
(assert (not (= x05 x45)))
(assert (not (= x05 x55)))
(assert (not (= x05 x65)))
(assert (not (= x05 x75)))
(assert (not (= x05 x85)))
(assert (not (= x15 (_ bv1 8))))
(assert (not (= x15 x35)))
(assert (not (= x15 x45)))
(assert (not (= x15 x55)))
(assert (not (= x15 x65)))
(assert (not (= x15 x75)))
(assert (not (= x15 x85)))
(assert (not (= (_ bv1 8) x35)))
(assert (not (= (_ bv1 8) x45)))
(assert (not (= (_ bv1 8) x55)))
(assert (not (= (_ bv1 8) x65)))
(assert (not (= (_ bv1 8) x75)))
(assert (not (= (_ bv1 8) x85)))
(assert (not (= x35 x45)))
(assert (not (= x35 x55)))
(assert (not (= x35 x65)))
(assert (not (= x35 x75)))
(assert (not (= x35 x85)))
(assert (not (= x45 x55)))
(assert (not (= x45 x65)))
(assert (not (= x45 x75)))
(assert (not (= x45 x85)))
(assert (not (= x55 x65)))
(assert (not (= x55 x75)))
(assert (not (= x55 x85)))
(assert (not (= x65 x75)))
(assert (not (= x65 x85)))
(assert (not (= x75 x85)))
(assert (not (= x06 (_ bv3 8))))
(assert (not (= x06 x26)))
(assert (not (= x06 (_ bv7 8))))
(assert (not (= x06 (_ bv2 8))))
(assert (not (= x06 x56)))
(assert (not (= x06 x66)))
(assert (not (= x06 (_ bv6 8))))
(assert (not (= x06 x86)))
(assert (not (= (_ bv3 8) x26)))
(assert (not (= (_ bv3 8) (_ bv7 8))))
(assert (not (= (_ bv3 8) (_ bv2 8))))
(assert (not (= (_ bv3 8) x56)))
(assert (not (= (_ bv3 8) x66)))
(assert (not (= (_ bv3 8) (_ bv6 8))))
(assert (not (= (_ bv3 8) x86)))
(assert (not (= x26 (_ bv7 8))))
(assert (not (= x26 (_ bv2 8))))
(assert (not (= x26 x56)))
(assert (not (= x26 x66)))
(assert (not (= x26 (_ bv6 8))))
(assert (not (= x26 x86)))
(assert (not (= (_ bv7 8) (_ bv2 8))))
(assert (not (= (_ bv7 8) x56)))
(assert (not (= (_ bv7 8) x66)))
(assert (not (= (_ bv7 8) (_ bv6 8))))
(assert (not (= (_ bv7 8) x86)))
(assert (not (= (_ bv2 8) x56)))
(assert (not (= (_ bv2 8) x66)))
(assert (not (= (_ bv2 8) (_ bv6 8))))
(assert (not (= (_ bv2 8) x86)))
(assert (not (= x56 x66)))
(assert (not (= x56 (_ bv6 8))))
(assert (not (= x56 x86)))
(assert (not (= x66 (_ bv6 8))))
(assert (not (= x66 x86)))
(assert (not (= (_ bv6 8) x86)))
(assert (not (= (_ bv7 8) x17)))
(assert (not (= (_ bv7 8) x27)))
(assert (not (= (_ bv7 8) x37)))
(assert (not (= (_ bv7 8) (_ bv5 8))))
(assert (not (= (_ bv7 8) x57)))
(assert (not (= (_ bv7 8) x67)))
(assert (not (= (_ bv7 8) x77)))
(assert (not (= (_ bv7 8) x87)))
(assert (not (= x17 x27)))
(assert (not (= x17 x37)))
(assert (not (= x17 (_ bv5 8))))
(assert (not (= x17 x57)))
(assert (not (= x17 x67)))
(assert (not (= x17 x77)))
(assert (not (= x17 x87)))
(assert (not (= x27 x37)))
(assert (not (= x27 (_ bv5 8))))
(assert (not (= x27 x57)))
(assert (not (= x27 x67)))
(assert (not (= x27 x77)))
(assert (not (= x27 x87)))
(assert (not (= x37 (_ bv5 8))))
(assert (not (= x37 x57)))
(assert (not (= x37 x67)))
(assert (not (= x37 x77)))
(assert (not (= x37 x87)))
(assert (not (= (_ bv5 8) x57)))
(assert (not (= (_ bv5 8) x67)))
(assert (not (= (_ bv5 8) x77)))
(assert (not (= (_ bv5 8) x87)))
(assert (not (= x57 x67)))
(assert (not (= x57 x77)))
(assert (not (= x57 x87)))
(assert (not (= x67 x77)))
(assert (not (= x67 x87)))
(assert (not (= x77 x87)))
(assert (not (= x08 (_ bv1 8))))
(assert (not (= x08 x28)))
(assert (not (= x08 x38)))
(assert (not (= x08 x48)))
(assert (not (= x08 x58)))
(assert (not (= x08 x68)))
(assert (not (= x08 (_ bv4 8))))
(assert (not (= x08 x88)))
(assert (not (= (_ bv1 8) x28)))
(assert (not (= (_ bv1 8) x38)))
(assert (not (= (_ bv1 8) x48)))
(assert (not (= (_ bv1 8) x58)))
(assert (not (= (_ bv1 8) x68)))
(assert (not (= (_ bv1 8) (_ bv4 8))))
(assert (not (= (_ bv1 8) x88)))
(assert (not (= x28 x38)))
(assert (not (= x28 x48)))
(assert (not (= x28 x58)))
(assert (not (= x28 x68)))
(assert (not (= x28 (_ bv4 8))))
(assert (not (= x28 x88)))
(assert (not (= x38 x48)))
(assert (not (= x38 x58)))
(assert (not (= x38 x68)))
(assert (not (= x38 (_ bv4 8))))
(assert (not (= x38 x88)))
(assert (not (= x48 x58)))
(assert (not (= x48 x68)))
(assert (not (= x48 (_ bv4 8))))
(assert (not (= x48 x88)))
(assert (not (= x58 x68)))
(assert (not (= x58 (_ bv4 8))))
(assert (not (= x58 x88)))
(assert (not (= x68 (_ bv4 8))))
(assert (not (= x68 x88)))
(assert (not (= (_ bv4 8) x88)))
(assert (not (= x00 (_ bv5 8))))
(assert (not (= x00 x02)))
(assert (not (= x00 (_ bv8 8))))
(assert (not (= x00 x11)))
(assert (not (= x00 x12)))
(assert (not (= x00 x20)))
(assert (not (= x00 (_ bv6 8))))
(assert (not (= x00 x22)))
(assert (not (= (_ bv5 8) x02)))
(assert (not (= (_ bv5 8) (_ bv8 8))))
(assert (not (= (_ bv5 8) x11)))
(assert (not (= (_ bv5 8) x12)))
(assert (not (= (_ bv5 8) x20)))
(assert (not (= (_ bv5 8) (_ bv6 8))))
(assert (not (= (_ bv5 8) x22)))
(assert (not (= x02 (_ bv8 8))))
(assert (not (= x02 x11)))
(assert (not (= x02 x12)))
(assert (not (= x02 x20)))
(assert (not (= x02 (_ bv6 8))))
(assert (not (= x02 x22)))
(assert (not (= (_ bv8 8) x11)))
(assert (not (= (_ bv8 8) x12)))
(assert (not (= (_ bv8 8) x20)))
(assert (not (= (_ bv8 8) (_ bv6 8))))
(assert (not (= (_ bv8 8) x22)))
(assert (not (= x11 x12)))
(assert (not (= x11 x20)))
(assert (not (= x11 (_ bv6 8))))
(assert (not (= x11 x22)))
(assert (not (= x12 x20)))
(assert (not (= x12 (_ bv6 8))))
(assert (not (= x12 x22)))
(assert (not (= x20 (_ bv6 8))))
(assert (not (= x20 x22)))
(assert (not (= (_ bv6 8) x22)))
(assert (not (= (_ bv4 8) x04)))
(assert (not (= (_ bv4 8) x05)))
(assert (not (= (_ bv4 8) x13)))
(assert (not (= (_ bv4 8) (_ bv5 8))))
(assert (not (= (_ bv4 8) x15)))
(assert (not (= (_ bv4 8) x23)))
(assert (not (= (_ bv4 8) x24)))
(assert (not (= (_ bv4 8) (_ bv1 8))))
(assert (not (= x04 x05)))
(assert (not (= x04 x13)))
(assert (not (= x04 (_ bv5 8))))
(assert (not (= x04 x15)))
(assert (not (= x04 x23)))
(assert (not (= x04 x24)))
(assert (not (= x04 (_ bv1 8))))
(assert (not (= x05 x13)))
(assert (not (= x05 (_ bv5 8))))
(assert (not (= x05 x15)))
(assert (not (= x05 x23)))
(assert (not (= x05 x24)))
(assert (not (= x05 (_ bv1 8))))
(assert (not (= x13 (_ bv5 8))))
(assert (not (= x13 x15)))
(assert (not (= x13 x23)))
(assert (not (= x13 x24)))
(assert (not (= x13 (_ bv1 8))))
(assert (not (= (_ bv5 8) x15)))
(assert (not (= (_ bv5 8) x23)))
(assert (not (= (_ bv5 8) x24)))
(assert (not (= (_ bv5 8) (_ bv1 8))))
(assert (not (= x15 x23)))
(assert (not (= x15 x24)))
(assert (not (= x15 (_ bv1 8))))
(assert (not (= x23 x24)))
(assert (not (= x23 (_ bv1 8))))
(assert (not (= x24 (_ bv1 8))))
(assert (not (= x06 (_ bv7 8))))
(assert (not (= x06 x08)))
(assert (not (= x06 (_ bv3 8))))
(assert (not (= x06 x17)))
(assert (not (= x06 (_ bv1 8))))
(assert (not (= x06 x26)))
(assert (not (= x06 x27)))
(assert (not (= x06 x28)))
(assert (not (= (_ bv7 8) x08)))
(assert (not (= (_ bv7 8) (_ bv3 8))))
(assert (not (= (_ bv7 8) x17)))
(assert (not (= (_ bv7 8) (_ bv1 8))))
(assert (not (= (_ bv7 8) x26)))
(assert (not (= (_ bv7 8) x27)))
(assert (not (= (_ bv7 8) x28)))
(assert (not (= x08 (_ bv3 8))))
(assert (not (= x08 x17)))
(assert (not (= x08 (_ bv1 8))))
(assert (not (= x08 x26)))
(assert (not (= x08 x27)))
(assert (not (= x08 x28)))
(assert (not (= (_ bv3 8) x17)))
(assert (not (= (_ bv3 8) (_ bv1 8))))
(assert (not (= (_ bv3 8) x26)))
(assert (not (= (_ bv3 8) x27)))
(assert (not (= (_ bv3 8) x28)))
(assert (not (= x17 (_ bv1 8))))
(assert (not (= x17 x26)))
(assert (not (= x17 x27)))
(assert (not (= x17 x28)))
(assert (not (= (_ bv1 8) x26)))
(assert (not (= (_ bv1 8) x27)))
(assert (not (= (_ bv1 8) x28)))
(assert (not (= x26 x27)))
(assert (not (= x26 x28)))
(assert (not (= x27 x28)))
(assert (not (= (_ bv2 8) x31)))
(assert (not (= (_ bv2 8) x32)))
(assert (not (= (_ bv2 8) (_ bv3 8))))
(assert (not (= (_ bv2 8) x41)))
(assert (not (= (_ bv2 8) x42)))
(assert (not (= (_ bv2 8) x50)))
(assert (not (= (_ bv2 8) (_ bv8 8))))
(assert (not (= (_ bv2 8) (_ bv6 8))))
(assert (not (= x31 x32)))
(assert (not (= x31 (_ bv3 8))))
(assert (not (= x31 x41)))
(assert (not (= x31 x42)))
(assert (not (= x31 x50)))
(assert (not (= x31 (_ bv8 8))))
(assert (not (= x31 (_ bv6 8))))
(assert (not (= x32 (_ bv3 8))))
(assert (not (= x32 x41)))
(assert (not (= x32 x42)))
(assert (not (= x32 x50)))
(assert (not (= x32 (_ bv8 8))))
(assert (not (= x32 (_ bv6 8))))
(assert (not (= (_ bv3 8) x41)))
(assert (not (= (_ bv3 8) x42)))
(assert (not (= (_ bv3 8) x50)))
(assert (not (= (_ bv3 8) (_ bv8 8))))
(assert (not (= (_ bv3 8) (_ bv6 8))))
(assert (not (= x41 x42)))
(assert (not (= x41 x50)))
(assert (not (= x41 (_ bv8 8))))
(assert (not (= x41 (_ bv6 8))))
(assert (not (= x42 x50)))
(assert (not (= x42 (_ bv8 8))))
(assert (not (= x42 (_ bv6 8))))
(assert (not (= x50 (_ bv8 8))))
(assert (not (= x50 (_ bv6 8))))
(assert (not (= (_ bv8 8) (_ bv6 8))))
(assert (not (= x33 x34)))
(assert (not (= x33 x35)))
(assert (not (= x33 x43)))
(assert (not (= x33 x44)))
(assert (not (= x33 x45)))
(assert (not (= x33 x53)))
(assert (not (= x33 x54)))
(assert (not (= x33 x55)))
(assert (not (= x34 x35)))
(assert (not (= x34 x43)))
(assert (not (= x34 x44)))
(assert (not (= x34 x45)))
(assert (not (= x34 x53)))
(assert (not (= x34 x54)))
(assert (not (= x34 x55)))
(assert (not (= x35 x43)))
(assert (not (= x35 x44)))
(assert (not (= x35 x45)))
(assert (not (= x35 x53)))
(assert (not (= x35 x54)))
(assert (not (= x35 x55)))
(assert (not (= x43 x44)))
(assert (not (= x43 x45)))
(assert (not (= x43 x53)))
(assert (not (= x43 x54)))
(assert (not (= x43 x55)))
(assert (not (= x44 x45)))
(assert (not (= x44 x53)))
(assert (not (= x44 x54)))
(assert (not (= x44 x55)))
(assert (not (= x45 x53)))
(assert (not (= x45 x54)))
(assert (not (= x45 x55)))
(assert (not (= x53 x54)))
(assert (not (= x53 x55)))
(assert (not (= x54 x55)))
(assert (not (= (_ bv7 8) x37)))
(assert (not (= (_ bv7 8) x38)))
(assert (not (= (_ bv7 8) (_ bv2 8))))
(assert (not (= (_ bv7 8) (_ bv5 8))))
(assert (not (= (_ bv7 8) x48)))
(assert (not (= (_ bv7 8) x56)))
(assert (not (= (_ bv7 8) x57)))
(assert (not (= (_ bv7 8) x58)))
(assert (not (= x37 x38)))
(assert (not (= x37 (_ bv2 8))))
(assert (not (= x37 (_ bv5 8))))
(assert (not (= x37 x48)))
(assert (not (= x37 x56)))
(assert (not (= x37 x57)))
(assert (not (= x37 x58)))
(assert (not (= x38 (_ bv2 8))))
(assert (not (= x38 (_ bv5 8))))
(assert (not (= x38 x48)))
(assert (not (= x38 x56)))
(assert (not (= x38 x57)))
(assert (not (= x38 x58)))
(assert (not (= (_ bv2 8) (_ bv5 8))))
(assert (not (= (_ bv2 8) x48)))
(assert (not (= (_ bv2 8) x56)))
(assert (not (= (_ bv2 8) x57)))
(assert (not (= (_ bv2 8) x58)))
(assert (not (= (_ bv5 8) x48)))
(assert (not (= (_ bv5 8) x56)))
(assert (not (= (_ bv5 8) x57)))
(assert (not (= (_ bv5 8) x58)))
(assert (not (= x48 x56)))
(assert (not (= x48 x57)))
(assert (not (= x48 x58)))
(assert (not (= x56 x57)))
(assert (not (= x56 x58)))
(assert (not (= x57 x58)))
(assert (not (= x60 (_ bv2 8))))
(assert (not (= x60 x62)))
(assert (not (= x60 x70)))
(assert (not (= x60 (_ bv3 8))))
(assert (not (= x60 x72)))
(assert (not (= x60 x80)))
(assert (not (= x60 x81)))
(assert (not (= x60 x82)))
(assert (not (= (_ bv2 8) x62)))
(assert (not (= (_ bv2 8) x70)))
(assert (not (= (_ bv2 8) (_ bv3 8))))
(assert (not (= (_ bv2 8) x72)))
(assert (not (= (_ bv2 8) x80)))
(assert (not (= (_ bv2 8) x81)))
(assert (not (= (_ bv2 8) x82)))
(assert (not (= x62 x70)))
(assert (not (= x62 (_ bv3 8))))
(assert (not (= x62 x72)))
(assert (not (= x62 x80)))
(assert (not (= x62 x81)))
(assert (not (= x62 x82)))
(assert (not (= x70 (_ bv3 8))))
(assert (not (= x70 x72)))
(assert (not (= x70 x80)))
(assert (not (= x70 x81)))
(assert (not (= x70 x82)))
(assert (not (= (_ bv3 8) x72)))
(assert (not (= (_ bv3 8) x80)))
(assert (not (= (_ bv3 8) x81)))
(assert (not (= (_ bv3 8) x82)))
(assert (not (= x72 x80)))
(assert (not (= x72 x81)))
(assert (not (= x72 x82)))
(assert (not (= x80 x81)))
(assert (not (= x80 x82)))
(assert (not (= x81 x82)))
(assert (not (= x63 (_ bv7 8))))
(assert (not (= x63 x65)))
(assert (not (= x63 (_ bv9 8))))
(assert (not (= x63 (_ bv2 8))))
(assert (not (= x63 x75)))
(assert (not (= x63 (_ bv1 8))))
(assert (not (= x63 x84)))
(assert (not (= x63 x85)))
(assert (not (= (_ bv7 8) x65)))
(assert (not (= (_ bv7 8) (_ bv9 8))))
(assert (not (= (_ bv7 8) (_ bv2 8))))
(assert (not (= (_ bv7 8) x75)))
(assert (not (= (_ bv7 8) (_ bv1 8))))
(assert (not (= (_ bv7 8) x84)))
(assert (not (= (_ bv7 8) x85)))
(assert (not (= x65 (_ bv9 8))))
(assert (not (= x65 (_ bv2 8))))
(assert (not (= x65 x75)))
(assert (not (= x65 (_ bv1 8))))
(assert (not (= x65 x84)))
(assert (not (= x65 x85)))
(assert (not (= (_ bv9 8) (_ bv2 8))))
(assert (not (= (_ bv9 8) x75)))
(assert (not (= (_ bv9 8) (_ bv1 8))))
(assert (not (= (_ bv9 8) x84)))
(assert (not (= (_ bv9 8) x85)))
(assert (not (= (_ bv2 8) x75)))
(assert (not (= (_ bv2 8) (_ bv1 8))))
(assert (not (= (_ bv2 8) x84)))
(assert (not (= (_ bv2 8) x85)))
(assert (not (= x75 (_ bv1 8))))
(assert (not (= x75 x84)))
(assert (not (= x75 x85)))
(assert (not (= (_ bv1 8) x84)))
(assert (not (= (_ bv1 8) x85)))
(assert (not (= x84 x85)))
(assert (not (= x66 x67)))
(assert (not (= x66 x68)))
(assert (not (= x66 (_ bv6 8))))
(assert (not (= x66 x77)))
(assert (not (= x66 (_ bv4 8))))
(assert (not (= x66 x86)))
(assert (not (= x66 x87)))
(assert (not (= x66 x88)))
(assert (not (= x67 x68)))
(assert (not (= x67 (_ bv6 8))))
(assert (not (= x67 x77)))
(assert (not (= x67 (_ bv4 8))))
(assert (not (= x67 x86)))
(assert (not (= x67 x87)))
(assert (not (= x67 x88)))
(assert (not (= x68 (_ bv6 8))))
(assert (not (= x68 x77)))
(assert (not (= x68 (_ bv4 8))))
(assert (not (= x68 x86)))
(assert (not (= x68 x87)))
(assert (not (= x68 x88)))
(assert (not (= (_ bv6 8) x77)))
(assert (not (= (_ bv6 8) (_ bv4 8))))
(assert (not (= (_ bv6 8) x86)))
(assert (not (= (_ bv6 8) x87)))
(assert (not (= (_ bv6 8) x88)))
(assert (not (= x77 (_ bv4 8))))
(assert (not (= x77 x86)))
(assert (not (= x77 x87)))
(assert (not (= x77 x88)))
(assert (not (= (_ bv4 8) x86)))
(assert (not (= (_ bv4 8) x87)))
(assert (not (= (_ bv4 8) x88)))
(assert (not (= x86 x87)))
(assert (not (= x86 x88)))
(assert (not (= x87 x88)))
(check-sat)
(exit)
